unsat
(:max-memory         18.42
 :memory             18.33
 :nlsat-arith-var    3
 :nlsat-atoms        9
 :nlsat-bool-var     2
 :nlsat-clauses      7
 :nlsat-conflicts    2
 :nlsat-propagations 6
 :nlsat-stages       2
 :num-allocs         51435
 :rlimit-count       2171
 :time               0.00
 :total-time         0.01)
